(set-logic ALL)
(set-option :produce-models true)
(declare-sort BoundSet 0)
(declare-sort UnboundSet 0)
(set-option :finite-model-find true)
(declare-fun IsChased (BoundSet BoundSet) Bool)
(declare-fun IsTan (BoundSet) Bool)
(assert (not (=> (exists ((a BoundSet)) (exists ((b BoundSet)) (IsChased a b))) (exists ((c BoundSet)) (exists ((d BoundSet)) (and (IsTan c) (IsChased c d)))))))
(check-sat)
(get-model)